SCIP Status        : solving was interrupted [time limit reached]
Total Time         :    3600.00
  solving          :    3600.00
  presolving       :       0.38 (included in solving)
  reading          :       0.00
  copying          :       2.95 (51 #copies) (minimal 0.00, maximal 0.17, average 0.06)
Original Problem   :
  Problem name     : bbbenchmark/g05_100.3.cut
  Variables        : 101 (100 binary, 0 integer, 0 implicit integer, 1 continuous)
  Constraints      : 1 initial, 1 maximal
  Objective        : minimize, 1 non-zeros (abs.min = 1, abs.max = 1)
Presolved Problem  :
  Problem name     : t_bbbenchmark/g05_100.3.cut
  Variables        : 1898 (100 binary, 0 integer, 1784 implicit integer, 14 continuous)
  Constraints      : 1824 initial, 11827 maximal
  Objective        : minimize, 1 non-zeros (abs.min = 1, abs.max = 1)
  Nonzeros         : 8697 constraint, 202 clique table
Presolvers         :   ExecTime  SetupTime  Calls  FixedVars   AggrVars   ChgTypes  ChgBounds   AddHoles    DelCons    AddCons   ChgSides   ChgCoefs
  boundshift       :       0.00       0.00      0          0          0          0          0          0          0          0          0          0
  convertinttobin  :       0.00       0.00      0          0          0          0          0          0          0          0          0          0
  domcol           :       0.00       0.00      1          0          0          0          0          0          0          0          0          0
  dualagg          :       0.00       0.00      0          0          0          0          0          0          0          0          0          0
  dualcomp         :       0.00       0.00      1          0          0          0          0          0          0          0          0          0
  dualinfer        :       0.00       0.00      0          0          0          0          0          0          0          0          0          0
  dualsparsify     :       0.00       0.00      1          0          0          0          0          0          0          0          0          0
  gateextraction   :       0.00       0.00      0          0          0          0          0          0          0          0          0          0
  implics          :       0.00       0.00      2          0          0          0          0          0          0          0          0          0
  inttobinary      :       0.00       0.00      0          0          0          0          0          0          0          0          0          0
  qpkktref         :       0.00       0.00      0          0          0          0          0          0          0          0          0          0
  redvub           :       0.00       0.00      0          0          0          0          0          0          0          0          0          0
  sparsify         :       0.00       0.00      1          0          0          0          0          0          0          0          0          0
  stuffing         :       0.00       0.00      0          0          0          0          0          0          0          0          0          0
  trivial          :       0.00       0.00      4          0          0          0          0          0          0          0          0          0
  tworowbnd        :       0.00       0.00      0          0          0          0          0          0          0          0          0          0
  dualfix          :       0.00       0.00      4          0          0          0          0          0          0          0          0          0
  genvbounds       :       0.00       0.00      0          0          0          0          0          0          0          0          0          0
  probing          :       0.32       0.00      1          0          0          0          0          0          0          0          0          0
  pseudoobj        :       0.00       0.00      1          0          0          0          1          0          0          0          0          0
  symmetry         :       0.00       0.00      0          0          0          0          0          0          0          0          0          0
  vbounds          :       0.00       0.00      1          0          0          0          0          0          0          0          0          0
  varbound         :       0.00       0.00      2          0          0          0          0          0          0          0          0          0
  and              :       0.01       0.00      2          0          0          0          0          0          0          0          0          0
  linear           :       0.00       0.00      2          0          0          0          0          0          0          0          0          0
  logicor          :       0.00       0.00      0          0          0          0          0          0          0          0          0          0
  bounddisjunction :       0.00       0.00      0          0          0          0          0          0          0          0          0          0
  nonlinear        :       0.05       0.00      5          0          0          0          1          0          0       1823          0          0
  benders          :       0.00       0.00      0          0          0          0          0          0          0          0          0          0
  components       :       0.00       0.00      1          0          0          0          0          0          0          0          0          0
  root node        :          -          -      -          0          -          -         14          -          -          -          -          -
Constraints        :     Number  MaxNumber  #Separate #Propagate    #EnfoLP    #EnfoRelax  #EnfoPS    #Check   #ResProp    Cutoffs    DomReds       Cuts    Applied      Conss   Children
  benderslp        :          0          0          0          0      98728          0          0       9572          0          0          0          0          0          0          0
  integral         :          0          0          0          0      98728          0          0       9572          0          0       1325          0          0        466     196274
  varbound         :         13         13        165     655596          0          0          0         57          0          0      36001          0          0          0          0
  and              :       1784       1784     113800     734371          1          0          0         57     507426          3    1811275       1659       1628          0          0
  linear           :         27+        37        165     734420          1          0          0         55        252          6     359777          0          0          0          0
  logicor          :          0+      9931          0     132039          0          0          0          0         73        463         52          0          0          0          0
  bounddisjunction :          0+       147          0      35017          0          0          0          0          2          8          2          0          0          0          0
  benders          :          0          0          0          0          1          0          0         31          0          0          0          0          0          0          0
  countsols        :          0          0          0          0          1          0          0         31          0          0          0          0          0          0          0
  components       :          0          0          0          0          0          0          0          0          0          0          0          0          0          0          0
Constraint Timings :  TotalTime  SetupTime   Separate  Propagate     EnfoLP     EnfoPS     EnfoRelax   Check    ResProp    SB-Prop
  benderslp        :       0.16       0.00       0.00       0.00       0.14       0.00       0.00       0.02       0.00       0.00
  integral         :      70.42       0.00       0.00       0.00      70.42       0.00       0.00       0.00       0.00       0.00
  varbound         :       0.74       0.00       0.00       0.73       0.00       0.00       0.00       0.00       0.00       0.01
  and              :     130.34       0.00      87.23      41.98       0.00       0.00       0.00       0.02       0.40       0.71
  linear           :       5.21       0.00       0.10       5.05       0.00       0.00       0.00       0.00       0.01       0.05
  logicor          :      15.85       0.00       0.00      15.82       0.00       0.00       0.00       0.00       0.01       0.02
  bounddisjunction :       0.19       0.00       0.00       0.19       0.00       0.00       0.00       0.00       0.00       0.00
  benders          :       0.00       0.00       0.00       0.00       0.00       0.00       0.00       0.00       0.00       0.00
  countsols        :       0.00       0.00       0.00       0.00       0.00       0.00       0.00       0.00       0.00       0.00
  components       :       0.19       0.00       0.00       0.19       0.00       0.00       0.00       0.00       0.00       0.00
Propagators        : #Propagate   #ResProp    Cutoffs    DomReds
  dualfix          :          4          0          0          0
  genvbounds       :          0          0          0          0
  nlobbt           :          0          0          0          0
  obbt             :          0          0          0          0
  probing          :          0          0          0          0
  pseudoobj        :     413598          0          0         20
  redcost          :     227080          0          0     151354
  rootredcost      :         13          0          0          0
  symmetry         :          0          0          0          0
  vbounds          :      94664          0          0          0
Propagator Timings :  TotalTime  SetupTime   Presolve  Propagate    ResProp    SB-Prop
  dualfix          :       0.00       0.00       0.00       0.00       0.00       0.00
  genvbounds       :       0.47       0.00       0.00       0.47       0.00       0.00
  nlobbt           :       0.00       0.00       0.00       0.00       0.00       0.00
  obbt             :       0.00       0.00       0.00       0.00       0.00       0.00
  probing          :       0.32       0.00       0.32       0.00       0.00       0.00
  pseudoobj        :       1.13       0.00       0.00       1.13       0.00       0.00
  redcost          :      18.03       0.00       0.00      18.03       0.00       0.00
  rootredcost      :       0.63       0.00       0.00       0.62       0.00       0.01
  symmetry         :       0.35       0.00       0.00       0.33       0.00       0.02
  vbounds          :       0.58       0.00       0.00       0.58       0.00       0.00
Conflict Analysis  :       Time      Calls    Success    DomReds  Conflicts   Literals    Reconvs ReconvLits   Dualrays   Nonzeros   LP Iters   (pool size: [10000,10000])
  propagation      :       0.00        475        385          -        438       62.3          0        0.0          -          -          -
  infeasible LP    :       0.02         21         21          -        765      137.0          0        0.0         45      145.9          0
  bound exceed. LP :      25.56       7748       6381          -     147870      105.1          0        0.0          0        0.0      50171
  strong branching :       0.00          0          0          -          0        0.0          0        0.0          -          -          0
  pseudo solution  :       0.00          0          0          -          0        0.0          0        0.0          -          -          -
  applied globally :       0.67          -          -          0      36104      115.4          -          -         45          -          -
  applied locally  :          -          -          -          0          0        0.0          -          -          0          -          -
Separators         :   ExecTime  SetupTime      Calls  RootCalls    Cutoffs    DomReds  FoundCuts ViaPoolAdd  DirectAdd    Applied ViaPoolApp  DirectApp      Conss
  cut pool         :       8.05          -      26718        196          -          -      36519    1866770          -          -          -          -          -    (maximal pool size:       3437)
  aggregation      :      15.72       0.00       4778        165          0          0         24        375          0        118        118          0          0
  > cmir           :          -          -          -          -          -          -          -        375          0        118        118          0          -
  > flowcover      :          -          -          -          -          -          -          -          0          0          0          0          0          -
  > knapsackcover  :          -          -          -          -          -          -          -          0          0          0          0          0          -
  cgmip            :       0.00       0.00          0          0          0          0          0          0          0          0          0          0          0
  clique           :       0.00       0.00        165        165          0          0          0          0          0          0          0          0          0
  closecuts        :       0.00       0.00          0          0          0          0          0          0          0          0          0          0          0
  convexproj       :       0.00       0.00          0          0          0          0          0          0          0          0          0          0          0
  disjunctive      :       0.00       0.00          0          0          0          0          0          0          0          0          0          0          0
  eccuts           :       0.00       0.00          0          0          0          0          0          0          0          0          0          0          0
  gauge            :       0.00       0.00          0          0          0          0          0          0          0          0          0          0          0
  gomory           :       0.00       0.00          0          0          0          0          0          0          0          0          0          0          0
  > gomorymi       :          -          -          -          -          -          -          -          0          0          0          0          0          -
  > strongcg       :          -          -          -          -          -          -          -          0          0          0          0          0          -
  impliedbounds    :       0.42       0.00       4778        165          0          0          5          0          0          0          0          0          0
  interlattice     :       1.05       0.00        137        137          0          0        137          0        137        136          0        136          0
  interminor       :       0.00       0.00          0          0          0          0          0          0          0          0          0          0          0
  intersub         :       0.00       0.00          0          0          0          0          0          0          0          0          0          0          0
  intobj           :       0.00       0.00          0          0          0          0          0          0          0          0          0          0          0
  mcf              :       0.00       0.00          1          1          0          0          0          0          0          0          0          0          0
  minor            :       0.00       0.00          0          0          0          0          0          0          0          0          0          0          0
  mixing           :       0.01       0.00       4778        165          0          0          0          0          0          0          0          0          0
  oddcycle         :       0.00       0.00          0          0          0          0          0          0          0          0          0          0          0
  rapidlearning    :       0.01       0.00          0          0          0          0          0          0          0          0          0          0          0
  rlt              :       0.00       0.00         10         10          0          0          0          0          0          0          0          0          0
  zerohalf         :      44.41       0.00       4239         20          0          0      36490    1866395          0     197555     197555          0          0
Cutselectors       :   ExecTime  SetupTime      Calls  RootCalls   Selected     Forced   Filtered  RootSelec   RootForc   RootFilt 
  hybrid           :       2.05       0.00      16017        166     199437          0    1669129        333          0         42
Pricers            :   ExecTime  SetupTime      Calls       Vars
  problem variables:       0.00          -          0          0
Branching Rules    :   ExecTime  SetupTime   BranchLP  BranchExt   BranchPS    Cutoffs    DomReds       Cuts      Conss   Children
  allfullstrong    :       0.00       0.00          0          0          0          0          0          0          0          0
  cloud            :       0.00       0.00          0          0          0          0          0          0          0          0
  distribution     :       0.00       0.00          0          0          0          0          0          0          0          0
  fullstrong       :       0.00       0.00          0          0          0          0          0          0          0          0
  inference        :       0.00       0.00          0          0          0          0          0          0          0          0
  leastinf         :       0.00       0.00          0          0          0          0          0          0          0          0
  lookahead        :       0.00       0.00          0          0          0          0          0          0          0          0
  mostinf          :       0.00       0.00          0          0          0          0          0          0          0          0
  multaggr         :       0.00       0.00          0          0          0          0          0          0          0          0
  nodereopt        :       0.00       0.00          0          0          0          0          0          0          0          0
  pscost           :       0.00       0.00          0          0          0          0          0          0          0          0
  random           :       0.00       0.00          0          0          0          0          0          0          0          0
  relpscost        :      70.10       0.00      98727          0          0          0       1325          0        663     196274
  vanillafullstrong:       0.00       0.00          0          0          0          0          0          0          0          0
Primal Heuristics  :   ExecTime  SetupTime      Calls      Found       Best
  LP solutions     :       0.00          -          -          1          1
  relax solutions  :       0.00          -          -          0          0
  pseudo solutions :       0.00          -          -          0          0
  strong branching :       0.07          -          -          0          0
  actconsdiving    :       0.00       0.00          0          0          0
  adaptivediving   :       4.42       0.00         30          0          0
  alns             :       3.70       0.00         22          3          3
  bound            :       0.00       0.00          0          0          0
  clique           :       0.01       0.00          1          0          0
  coefdiving       :       0.00       0.00          0          0          0
  completesol      :       0.00       0.00          0          0          0
  conflictdiving   :     176.53       0.00       1262          1          1
  crossover        :       8.45       0.00          7          2          2
  dins             :       0.00       0.00          0          0          0
  distributiondivin:      84.02       0.00        382          0          0
  dps              :       0.00       0.00          0          0          0
  dualval          :       0.00       0.00          0          0          0
  farkasdiving     :       0.00       0.00          0          0          0
  feaspump         :       0.27       0.00          1          1          1
  fixandinfer      :       0.00       0.00          0          0          0
  fracdiving       :      64.91       0.00        550          0          0
  gins             :       0.07       0.00          0          0          0
  guideddiving     :      67.36       0.00        522          3          3
  indicator        :       0.11       0.00          0          0          0
  indicatordiving  :       0.00       0.00          0          0          0
  intdiving        :       0.00       0.00          0          0          0
  intshifting      :       0.63       0.00         79          0          0
  linesearchdiving :      66.35       0.00        506          0          0
  localbranching   :       0.00       0.00          0          0          0
  locks            :       0.01       0.00          1          0          0
  lpface           :       0.19       0.00          0          0          0
  mpec             :      91.44       0.00         11          2          2
  multistart       :       0.00       0.00          0          0          0
  mutation         :       0.00       0.00          0          0          0
  nlpdiving        :      17.85       0.00          2          0          0
  objpscostdiving  :      73.59       0.00         79         10          1
  octane           :       0.00       0.00          0          0          0
  ofins            :       0.09       0.00          0          0          0
  oneopt           :       0.08       0.00         17          0          0
  padm             :       0.00       0.00          0          0          0
  proximity        :       0.00       0.00          0          0          0
  pscostdiving     :      62.81       0.00        413          1          1
  randrounding     :       1.42       0.00       9538          0          0
  rens             :       0.00       0.00          0          0          0
  reoptsols        :       0.00       0.00          0          0          0
  repair           :       0.00       0.00          0          0          0
  rins             :       7.04       0.00         22          0          0
  rootsoldiving    :      38.08       0.00         35          0          0
  rounding         :       1.74       0.00       4703          0          0
  shiftandpropagate:       0.00       0.00          0          0          0
  shifting         :      48.82       0.00       9391          2          2
  simplerounding   :       0.08       0.00          0          0          0
  subnlp           :     193.53       0.00          0          0          0
  trivial          :       0.00       0.00          2          2          2
  trivialnegation  :       0.00       0.00          0          0          0
  trustregion      :       0.00       0.00          0          0          0
  trysol           :       0.20       0.00          0          0          0
  twoopt           :       0.00       0.00          0          0          0
  undercover       :       1.61       0.00          1          1          1
  vbounds          :       0.00       0.00          0          0          0
  veclendiving     :      65.15       0.00        527          0          0
  zeroobj          :       0.00       0.00          0          0          0
  zirounding       :       0.40       0.00       1000          0          0
  other solutions  :          -          -          -          0          -
Diving (single)    :      Calls      Nodes   LP Iters Backtracks  Conflicts   MinDepth   MaxDepth   AvgDepth  RoundSols  NLeafSols  MinSolDpt  MaxSolDpt  AvgSolDpt
  actconsdiving    :          0          -          -          -          -          -          -          -          -          -          -          -          -
  coefdiving       :          0          -          -          -          -          -          -          -          -          -          -          -          -
  conflictdiving   :       1262      51085    1607709       1422      63664         52         89       63.2          0          1         89         89       89.0
  distributiondivin:        382      13345     587119        408       5848         49         66       56.3          0          -          -          -          -
  farkasdiving     :          0          -          -          -          -          -          -          -          -          -          -          -          -
  fracdiving       :        550      49604     582269        149       2389         58        352      113.2          0          -          -          -          -
  guideddiving     :        522      43728     615220        253       6310         57        214      106.0          0          3        101        135      119.3
  indicatordiving  :          0          -          -          -          -          -          -          -          -          -          -          -          -
  linesearchdiving :        506      18860     583290        520      26536         47         92       58.7          0          -          -          -          -
  pscostdiving     :        413      18736     599976        440      10836         58         85       66.6          0          1         85         85       85.0
  veclendiving     :        527      21150     582969        519      29229         52         82       61.7          0          -          -          -          -
Diving (adaptive)  :      Calls      Nodes   LP Iters Backtracks  Conflicts   MinDepth   MaxDepth   AvgDepth  RoundSols  NLeafSols  MinSolDpt  MaxSolDpt  AvgSolDpt
  actconsdiving    :          3        126       4911          3         43         58         60       58.7          0          -          -          -          -
  coefdiving       :         11        493      12965          7        635         56         91       65.0          0          -          -          -          -
  conflictdiving   :          0          -          -          -          -          -          -          -          -          -          -          -          -
  distributiondivin:          0          -          -          -          -          -          -          -          -          -          -          -          -
  farkasdiving     :          0          -          -          -          -          -          -          -          -          -          -          -          -
  fracdiving       :          0          -          -          -          -          -          -          -          -          -          -          -          -
  guideddiving     :          4        407       5457          1         59         99        143      120.2          0          -          -          -          -
  indicatordiving  :          0          -          -          -          -          -          -          -          -          -          -          -          -
  linesearchdiving :          4        147       4524          4        230         55         60       58.2          0          -          -          -          -
  pscostdiving     :          3        122       4390          3        117         60         64       62.3          0          -          -          -          -
  veclendiving     :          5        225       6499          4        320         55         75       62.0          0          -          -          -          -
Neighborhoods      :      Calls  SetupTime  SolveTime SolveNodes       Sols       Best       Exp3  EpsGreedy        UCB TgtFixRate  Opt  Inf Node Stal  Sol  Usr Othr Actv
  rens             :          4       0.50       0.80         76          0          0    0.00000   -1.00000    0.46078      0.522    0    3    0    1    0    0    0    1
  rins             :          1       0.03       0.03         67          0          0    0.00000   -1.00000    0.50383      0.700    0    1    0    0    0    0    0    1
  mutation         :          5       0.46       0.32        227          1          1    0.00000   -1.00000    0.49935      0.716    1    2    0    2    0    0    0    1
  localbranching   :          1       0.03       0.03         71          0          0    0.00000   -1.00000    0.49983      0.700    0    1    0    0    0    0    0    1
  crossover        :          6       0.57       0.26        198          2          2    0.00000   -1.00000    0.51789      0.711    1    3    0    2    0    0    0    1
  proximity        :          2       0.11       0.14         70          0          0    0.00000   -1.00000    0.46958      0.850    0    1    0    1    0    0    0    1
  zeroobjective    :          2       0.14       0.08         79          0          0    0.00000   -1.00000    0.46658      0.850    0    1    0    1    0    0    0    1
  dins             :          1       0.00       0.00          0          0          0    0.00000   -1.00000    0.07083      0.900    0    0    0    0    0    0    1    1
  trustregion      :          0       0.00       0.00          0          0          0    0.00000   -1.00000    1.00000      0.900    0    0    0    0    0    0    0    0
Expressions        :   #IntEval  IntEvalTi   #RevProp  RevPropTi    DomReds    Cutoffs  #Estimate  EstimTime  Branching  #Simplify SimplifyTi Simplified
  pow              :          0       0.00          0       0.00          0          0          0       0.00          0          0       0.00          0
  prod             :       9900       0.00          0       0.00          0          0          0       0.00          0       6734       0.00          0
  sum              :          8       0.00          2       0.00          0          0          0       0.00          0          3       0.00          2
  var              :       6503       0.01          0       0.00          0          0          0       0.00          0      15568       0.00          0
  varidx           :          0       0.00          0       0.00          0          0          0       0.00          0          0       0.00          0
LP                 :       Time      Calls Iterations  Iter/call   Iter/sec  Time-0-It Calls-0-It    ItLimit
  primal LP        :     109.09      13398          0       0.00       0.00     109.04      13398
  dual LP          :    1910.47     177229   11412194      69.74    5973.50       7.11      13601
  lex dual LP      :       0.00          0          0       0.00          -
  barrier LP       :       0.00          0          0       0.00          -       0.00          0
  resolve instable :       0.00          0          0       0.00          -
  diving/probing LP:     594.99      20612    5789518     280.88    9730.45
  strong branching :      27.50       2222     251603     113.23    9149.20          -          -        243
    (at root node) :          -         19       5741     302.16          -
  conflict analysis:       9.13       5079      50171       9.88    5495.18
NLP relaxation     :
  solve time       :      17.30 (7 calls)
  convexity        :  nonconvex (40 linear rows, 0 convex ineq., 0 nonconvex ineq., 1784 nonlinear eq. or two-sided ineq.)
NLP Solvers        :  #Problems  ProblemTi    #Solves  SolveTime      #Iter  Time/Iter      #Okay #TimeLimit #IterLimit #LObjLimit #Interrupt  #NumError #EvalError  #OutOfMem #LicenseEr #OtherTerm   #GlobOpt    #LocOpt  #Feasible #LocInfeas #GlobInfea #Unbounded   #Unknown
  ipopt            :         12       7.74         40     111.76       1754       0.06         40          0          0          0          0          0          0          0          0          0          0         25          0         14          0          0          1
B&B Tree           :
  number of runs   :          1
  nodes            :     147036 (98137 internal, 48899 leaves)
  feasible leaves  :          1
  infeas. leaves   :         11
  objective leaves :      48886
  nodes (total)    :     147036 (98137 internal, 48899 leaves)
  nodes left       :      49007
  max depth        :         70
  max depth (total):         70
  backtracks       :      28630 (19.5%)
  early backtracks :          0 (0.0%)
  nodes exc. ref.  :          0 (0.0%)
  delayed cutoffs  :          1
  repropagations   :         73 (439 domain reductions, 0 cutoffs)
  avg switch length:       5.53
  switching time   :     149.44
Estim. Tree Size   :     294536
Estimation Tree    : 196275 nodes (147268 visited, 98137 internal, 49131 leaves, 49007 open), weight: 0.0000 completed 0.1011
Estimations        :      estim      value      trend resolution     smooth
  wbe              : 1760313119990252          -          -          -          -
  tree-profile     :         -1          -          -          -          -
  gap              :    4942124    0.68672    0.00001         64    5069321
  tree-weight      :     294536    0.00000    0.00000         64     287566
  leaf-frequency   :     882053    0.33361    0.00003         64     838652
  ssg              :   17786860    0.84030   -0.00001         64   17988846
  open-nodes       :     294536 49007.00000   11.79089         64     287566
Root Node          :
  First LP value   : -1.00000000000000e+00
  First LP Iters   :       1667 (10418.75 Iter/sec)
  First LP Time    :       0.16
  Final Dual Bound : -9.40406565656566e-01
  Final Root Iters :       4751
  Root LP Estimate : -3.41353859664473e-01
Solution           :
  Solutions found  :         29 (20 improvements)
  First Solution   : +1.00000000000000e+05   (in run 1, after 0 nodes, 0.01 seconds, depth 0, found by <trivial>)
  Gap First Sol.   :   infinite
  Gap Last Sol.    :      47.85 %
  Primal Bound     : -5.65252525252524e-01   (in run 1, after 74788 nodes, 1560.25 seconds, depth 122, found by <guideddiving>)
  Dual Bound       : -8.23119003224559e-01
  Gap              :      45.62 %
Integrals          :      Total       Avg%
  primal-dual      :  120344.60      33.43
  primal-ref       :          -          - (not evaluated)
  dual-ref         :          -          - (not evaluated)
